/*********************************************
 * OPL 12.3 Data
 * Author: pziel
 * Przyklad 2 z materialow do wykladu 
 * Przyklad ilustruje sytuacje, ze istnieje nieskonczenie wiele rozwiazan 
 * Funkcja celu 
 * max: 4 x1 +3 x2;
 * Ograniczenia 
 *    x1  + 2 x2 <= 40;
 *  4 x1  + 3 x2 <= 120;
 *  x1 i x2 sa rzeczywiste nieujemne 
 *********************************************/
//inicjalizacja
m = 2;
n = 2;
b = [ 40, 120];
A = [[1,2],[4,3]];
c = [ 4, 3];